Running for instance ./models/c205.txt
Generating routes...
Execution time:  0.159151416667  minutes
Academic license - for non-commercial use only
Warning: constraint name "Cliente esta na rota" has a space
Optimize a model with 26 rows, 5000 columns and 33379 nonzeros
Variable types: 0 continuous, 5000 integer (0 binary)
Coefficient statistics:
  Matrix range     [1e+00, 1e+00]
  Objective range  [3e+01, 2e+02]
  Bounds range     [1e+00, 1e+00]
  RHS range        [1e+00, 2e+01]
Found heuristic solution: objective 917.2427185
Presolve removed 1 rows and 2147 columns
Presolve time: 0.04s
Presolved: 25 rows, 2853 columns, 19351 nonzeros
Found heuristic solution: objective 631.4586341
Variable types: 0 continuous, 2853 integer (2853 binary)

Root relaxation: objective 3.030707e+02, 102 iterations, 0.00 seconds

    Nodes    |    Current Node    |     Objective Bounds      |     Work
 Expl Unexpl |  Obj  Depth IntInf | Incumbent    BestBd   Gap | It/Node Time

     0     0  303.07066    0   22  631.45863  303.07066  52.0%     -    0s
H    0     0                     462.1929482  303.07066  34.4%     -    0s
H    0     0                     339.6160219  303.07066  10.8%     -    0s
H    0     0                     326.3235008  303.07066  7.13%     -    0s
     0     0  309.03364    0   25  326.32350  309.03364  5.30%     -    0s
     0     0  309.03364    0   22  326.32350  309.03364  5.30%     -    0s
     0     0  309.75442    0   21  326.32350  309.75442  5.08%     -    0s
     0     0  312.45363    0    7  326.32350  312.45363  4.25%     -    0s
     0     0  314.01702    0   27  326.32350  314.01702  3.77%     -    0s
     0     0  314.30635    0   23  326.32350  314.30635  3.68%     -    0s
     0     0  314.61518    0   24  326.32350  314.61518  3.59%     -    0s
     0     0  314.75026    0   24  326.32350  314.75026  3.55%     -    0s
     0     0  315.21688    0    8  326.32350  315.21688  3.40%     -    0s
     0     0  315.21688    0   14  326.32350  315.21688  3.40%     -    0s
H    0     0                     325.8943248  315.21688  3.28%     -    0s
*    0     0               0     325.8943078  325.89431  0.00%     -    0s

Cutting planes:
  Gomory: 1
  MIR: 4

Explored 1 nodes (455 simplex iterations) in 0.18 seconds
Thread count was 8 (of 8 available processors)

Solution count 7: 325.894 325.894 326.324 ... 714.835

Optimal solution found (tolerance 1.00e-04)
Best objective 3.258943078087e+02, best bound 3.258943078022e+02, gap 0.0000%
22 6 23 18 19 12 16 14
5 10 8
22 5 20 24 23 18 19 16 14 15 12 13 17
2 1 7 4 3 11
2 1 3 7
20 24 25 17 13 9
20 25 17 13 9 11
20 24 6 21
Distance: 727.787504526
Execution time:  0.1678153  minutes
